p edge 240 1680
e 1 2
e 1 9
e 1 29
e 1 30
e 1 73
e 1 190
e 1 223
e 2 33
e 2 41
e 2 62
e 2 82
e 2 89
e 2 193
e 2 208
e 3 2
e 3 48
e 3 72
e 3 87
e 3 91
e 3 119
e 3 138
e 4 62
e 4 71
e 4 105
e 4 190
e 4 199
e 4 224
e 4 236
e 5 10
e 5 47
e 5 129
e 5 161
e 5 187
e 5 192
e 5 203
e 6 10
e 6 11
e 6 29
e 6 82
e 6 123
e 6 213
e 6 223
e 7 14
e 7 78
e 7 132
e 7 138
e 7 158
e 7 184
e 7 211
e 8 35
e 8 125
e 8 128
e 8 129
e 8 140
e 8 205
e 8 214
e 9 18
e 9 26
e 9 35
e 9 64
e 9 83
e 9 106
e 9 240
e 10 21
e 10 24
e 10 41
e 10 82
e 10 123
e 10 210
e 10 224
e 11 16
e 11 92
e 11 153
e 11 170
e 11 181
e 11 214
e 11 238
e 12 38
e 12 60
e 12 64
e 12 85
e 12 120
e 12 195
e 12 217
e 13 31
e 13 73
e 13 91
e 13 94
e 13 111
e 13 116
e 13 200
e 14 40
e 14 63
e 14 65
e 14 150
e 14 173
e 14 198
e 14 200
e 15 1
e 15 91
e 15 121
e 15 186
e 15 202
e 15 202
e 15 235
e 16 35
e 16 53
e 16 64
e 16 73
e 16 139
e 16 183
e 16 215
e 17 37
e 17 46
e 17 62
e 17 115
e 17 182
e 17 237
e 17 239
e 18 6
e 18 28
e 18 39
e 18 69
e 18 103
e 18 140
e 18 230
e 19 1
e 19 100
e 19 121
e 19 143
e 19 162
e 19 164
e 19 232
e 20 30
e 20 36
e 20 44
e 20 54
e 20 139
e 20 174
e 20 194
e 21 7
e 21 25
e 21 60
e 21 102
e 21 150
e 21 176
e 21 211
e 22 57
e 22 65
e 22 70
e 22 87
e 22 149
e 22 184
e 22 195
e 23 1
e 23 24
e 23 36
e 23 102
e 23 159
e 23 160
e 23 163
e 24 22
e 24 23
e 24 29
e 24 31
e 24 58
e 24 171
e 24 230
e 25 29
e 25 79
e 25 93
e 25 126
e 25 224
e 25 226
e 25 235
e 26 35
e 26 69
e 26 89
e 26 170
e 26 172
e 26 192
e 26 206
e 27 35
e 27 42
e 27 91
e 27 100
e 27 137
e 27 156
e 27 196
e 28 64
e 28 90
e 28 132
e 28 186
e 28 192
e 28 222
e 28 237
e 29 52
e 29 54
e 29 122
e 29 165
e 29 184
e 29 187
e 29 188
e 30 5
e 30 23
e 30 73
e 30 133
e 30 147
e 30 175
e 30 209
e 31 75
e 31 81
e 31 112
e 31 117
e 31 155
e 31 159
e 31 195
e 32 24
e 32 39
e 32 65
e 32 68
e 32 110
e 32 155
e 32 229
e 33 17
e 33 23
e 33 66
e 33 123
e 33 132
e 33 153
e 33 218
e 34 7
e 34 24
e 34 77
e 34 97
e 34 104
e 34 188
e 34 216
e 35 54
e 35 102
e 35 123
e 35 148
e 35 204
e 35 208
e 35 227
e 36 26
e 36 38
e 36 53
e 36 85
e 36 100
e 36 234
e 36 239
e 37 3
e 37 35
e 37 93
e 37 109
e 37 132
e 37 188
e 37 211
e 38 29
e 38 62
e 38 68
e 38 126
e 38 135
e 38 151
e 38 191
e 39 6
e 39 23
e 39 64
e 39 95
e 39 140
e 39 166
e 39 216
e 40 2
e 40 35
e 40 42
e 40 166
e 40 180
e 40 208
e 40 217
e 41 60
e 41 67
e 41 90
e 41 115
e 41 119
e 41 216
e 41 225
e 42 59
e 42 80
e 42 82
e 42 89
e 42 132
e 42 167
e 42 236
e 43 22
e 43 57
e 43 64
e 43 79
e 43 84
e 43 165
e 43 170
e 44 92
e 44 121
e 44 142
e 44 143
e 44 154
e 44 179
e 44 189
e 45 24
e 45 33
e 45 57
e 45 62
e 45 122
e 45 188
e 45 203
e 46 22
e 46 37
e 46 61
e 46 81
e 46 96
e 46 169
e 46 202
e 47 26
e 47 41
e 47 64
e 47 88
e 47 137
e 47 148
e 47 204
e 48 46
e 48 62
e 48 76
e 48 155
e 48 168
e 48 169
e 48 233
e 49 26
e 49 81
e 49 103
e 49 131
e 49 145
e 49 168
e 49 182
e 50 40
e 50 74
e 50 114
e 50 141
e 50 207
e 50 208
e 50 214
e 51 65
e 51 77
e 51 98
e 51 110
e 51 140
e 51 161
e 51 231
e 52 38
e 52 57
e 52 57
e 52 144
e 52 145
e 52 215
e 52 238
e 53 6
e 53 31
e 53 70
e 53 77
e 53 152
e 53 153
e 53 185
e 54 23
e 54 48
e 54 106
e 54 142
e 54 178
e 54 201
e 54 233
e 55 43
e 55 58
e 55 70
e 55 167
e 55 194
e 55 199
e 55 227
e 56 12
e 56 13
e 56 29
e 56 51
e 56 93
e 56 93
e 56 143
e 57 38
e 57 109
e 57 175
e 57 182
e 57 197
e 57 201
e 57 201
e 58 13
e 58 114
e 58 114
e 58 131
e 58 137
e 58 208
e 58 212
e 59 16
e 59 52
e 59 72
e 59 75
e 59 116
e 59 153
e 59 184
e 60 15
e 60 51
e 60 68
e 60 109
e 60 142
e 60 157
e 60 221
e 61 57
e 61 76
e 61 77
e 61 80
e 61 172
e 61 193
e 61 209
e 62 37
e 62 83
e 62 110
e 62 170
e 62 178
e 62 207
e 62 218
e 63 88
e 63 152
e 63 166
e 63 191
e 63 192
e 63 193
e 63 216
e 64 48
e 64 86
e 64 95
e 64 162
e 64 213
e 64 217
e 64 222
e 65 1
e 65 4
e 65 10
e 65 24
e 65 61
e 65 183
e 65 194
e 66 29
e 66 104
e 66 144
e 66 147
e 66 152
e 66 196
e 66 209
e 67 20
e 67 36
e 67 70
e 67 75
e 67 134
e 67 180
e 67 184
e 68 56
e 68 60
e 68 115
e 68 187
e 68 211
e 68 227
e 68 234
e 69 8
e 69 30
e 69 108
e 69 151
e 69 177
e 69 193
e 69 224
e 70 18
e 70 39
e 70 48
e 70 62
e 70 75
e 70 133
e 70 143
e 71 43
e 71 75
e 71 93
e 71 104
e 71 165
e 71 184
e 71 200
e 72 13
e 72 18
e 72 43
e 72 49
e 72 49
e 72 74
e 72 134
e 73 62
e 73 67
e 73 93
e 73 122
e 73 129
e 73 147
e 73 220
e 74 1
e 74 25
e 74 27
e 74 73
e 74 96
e 74 156
e 74 238
e 75 46
e 75 72
e 75 154
e 75 177
e 75 185
e 75 238
e 75 238
e 76 5
e 76 19
e 76 35
e 76 35
e 76 61
e 76 108
e 76 218
e 77 4
e 77 17
e 77 23
e 77 40
e 77 71
e 77 107
e 77 180
e 78 111
e 78 118
e 78 162
e 78 172
e 78 177
e 78 195
e 78 223
e 79 48
e 79 78
e 79 92
e 79 124
e 79 223
e 79 230
e 79 232
e 80 19
e 80 41
e 80 128
e 80 163
e 80 166
e 80 187
e 80 232
e 81 2
e 81 37
e 81 69
e 81 86
e 81 158
e 81 202
e 81 209
e 82 25
e 82 70
e 82 76
e 82 168
e 82 204
e 82 213
e 82 229
e 83 37
e 83 48
e 83 50
e 83 66
e 83 67
e 83 146
e 83 231
e 84 31
e 84 49
e 84 108
e 84 140
e 84 141
e 84 150
e 84 161
e 85 1
e 85 28
e 85 55
e 85 68
e 85 107
e 85 166
e 85 185
e 86 25
e 86 61
e 86 81
e 86 93
e 86 99
e 86 141
e 86 200
e 87 3
e 87 33
e 87 58
e 87 133
e 87 168
e 87 194
e 87 219
e 88 8
e 88 32
e 88 41
e 88 86
e 88 142
e 88 148
e 88 207
e 89 14
e 89 73
e 89 82
e 89 134
e 89 145
e 89 156
e 89 181
e 90 17
e 90 24
e 90 78
e 90 161
e 90 182
e 90 187
e 90 221
e 91 13
e 91 22
e 91 57
e 91 114
e 91 144
e 91 153
e 91 155
e 92 36
e 92 46
e 92 191
e 92 194
e 92 196
e 92 207
e 92 211
e 93 15
e 93 60
e 93 108
e 93 177
e 93 195
e 93 215
e 93 236
e 94 27
e 94 56
e 94 65
e 94 79
e 94 81
e 94 141
e 94 222
e 95 13
e 95 21
e 95 28
e 95 38
e 95 79
e 95 97
e 95 160
e 96 51
e 96 75
e 96 146
e 96 161
e 96 173
e 96 229
e 96 235
e 97 14
e 97 45
e 97 75
e 97 144
e 97 165
e 97 192
e 97 193
e 98 16
e 98 117
e 98 129
e 98 139
e 98 199
e 98 203
e 98 208
e 99 23
e 99 34
e 99 83
e 99 101
e 99 104
e 99 156
e 99 180
e 100 34
e 100 110
e 100 149
e 100 173
e 100 200
e 100 211
e 100 223
e 101 16
e 101 32
e 101 94
e 101 106
e 101 111
e 101 155
e 101 220
e 102 23
e 102 31
e 102 62
e 102 75
e 102 110
e 102 215
e 102 239
e 103 62
e 103 117
e 103 132
e 103 155
e 103 163
e 103 181
e 103 230
e 104 17
e 104 100
e 104 129
e 104 154
e 104 157
e 104 191
e 104 218
e 105 5
e 105 58
e 105 70
e 105 110
e 105 127
e 105 177
e 105 201
e 106 3
e 106 23
e 106 30
e 106 78
e 106 101
e 106 136
e 106 141
e 107 21
e 107 74
e 107 74
e 107 100
e 107 164
e 107 165
e 107 212
e 108 38
e 108 49
e 108 51
e 108 131
e 108 175
e 108 176
e 108 198
e 109 22
e 109 26
e 109 48
e 109 55
e 109 56
e 109 140
e 109 162
e 110 8
e 110 30
e 110 36
e 110 48
e 110 55
e 110 159
e 110 206
e 111 8
e 111 43
e 111 49
e 111 66
e 111 77
e 111 163
e 111 236
e 112 25
e 112 37
e 112 81
e 112 101
e 112 102
e 112 127
e 112 226
e 113 92
e 113 95
e 113 147
e 113 172
e 113 198
e 113 220
e 113 225
e 114 17
e 114 25
e 114 38
e 114 91
e 114 97
e 114 119
e 114 183
e 115 85
e 115 93
e 115 175
e 115 191
e 115 208
e 115 226
e 115 237
e 116 61
e 116 70
e 116 77
e 116 90
e 116 140
e 116 169
e 116 203
e 117 29
e 117 73
e 117 75
e 117 77
e 117 96
e 117 179
e 117 216
e 118 2
e 118 4
e 118 26
e 118 148
e 118 169
e 118 178
e 118 223
e 119 54
e 119 112
e 119 144
e 119 157
e 119 181
e 119 186
e 119 217
e 120 32
e 120 82
e 120 130
e 120 134
e 120 137
e 120 198
e 120 229
e 121 28
e 121 30
e 121 49
e 121 119
e 121 129
e 121 145
e 121 204
e 122 7
e 122 93
e 122 105
e 122 150
e 122 155
e 122 206
e 122 229
e 123 8
e 123 14
e 123 154
e 123 158
e 123 183
e 123 235
e 123 239
e 124 10
e 124 48
e 124 100
e 124 157
e 124 198
e 124 231
e 124 231
e 125 27
e 125 32
e 125 50
e 125 51
e 125 129
e 125 135
e 125 146
e 126 15
e 126 26
e 126 32
e 126 36
e 126 59
e 126 159
e 126 197
e 127 5
e 127 12
e 127 12
e 127 35
e 127 68
e 127 189
e 127 231
e 128 45
e 128 124
e 128 138
e 128 165
e 128 178
e 128 207
e 128 239
e 129 21
e 129 33
e 129 35
e 129 36
e 129 90
e 129 114
e 129 191
e 130 64
e 130 99
e 130 105
e 130 112
e 130 116
e 130 161
e 130 163
e 131 49
e 131 79
e 131 95
e 131 119
e 131 122
e 131 154
e 131 157
e 132 9
e 132 44
e 132 60
e 132 78
e 132 79
e 132 182
e 132 202
e 133 24
e 133 56
e 133 58
e 133 72
e 133 92
e 133 188
e 133 194
e 134 5
e 134 43
e 134 136
e 134 156
e 134 185
e 134 193
e 134 218
e 135 10
e 135 90
e 135 103
e 135 105
e 135 147
e 135 186
e 135 217
e 136 11
e 136 11
e 136 40
e 136 59
e 136 65
e 136 128
e 136 212
e 137 5
e 137 9
e 137 97
e 137 125
e 137 177
e 137 182
e 137 211
e 138 48
e 138 62
e 138 116
e 138 135
e 138 152
e 138 197
e 138 236
e 139 56
e 139 67
e 139 112
e 139 116
e 139 123
e 139 123
e 139 165
e 140 14
e 140 30
e 140 90
e 140 94
e 140 118
e 140 179
e 140 212
e 141 22
e 141 39
e 141 58
e 141 128
e 141 150
e 141 167
e 141 190
e 142 11
e 142 15
e 142 59
e 142 66
e 142 148
e 142 158
e 142 203
e 143 60
e 143 63
e 143 70
e 143 83
e 143 127
e 143 196
e 143 199
e 144 1
e 144 16
e 144 55
e 144 117
e 144 192
e 144 235
e 144 239
e 145 7
e 145 18
e 145 28
e 145 44
e 145 79
e 145 187
e 145 226
e 146 6
e 146 19
e 146 63
e 146 82
e 146 143
e 146 205
e 146 237
e 147 2
e 147 29
e 147 39
e 147 40
e 147 52
e 147 148
e 147 240
e 148 18
e 148 37
e 148 96
e 148 126
e 148 149
e 148 172
e 148 215
e 149 15
e 149 93
e 149 135
e 149 147
e 149 190
e 149 195
e 149 223
e 150 24
e 150 30
e 150 67
e 150 78
e 150 93
e 150 136
e 150 136
e 151 35
e 151 62
e 151 89
e 151 104
e 151 112
e 151 133
e 151 209
e 152 43
e 152 115
e 152 132
e 152 136
e 152 175
e 152 208
e 152 218
e 153 79
e 153 87
e 153 89
e 153 104
e 153 170
e 153 175
e 153 237
e 154 17
e 154 29
e 154 32
e 154 122
e 154 171
e 154 188
e 154 194
e 155 4
e 155 71
e 155 106
e 155 118
e 155 207
e 155 217
e 155 236
e 156 67
e 156 99
e 156 120
e 156 121
e 156 152
e 156 204
e 156 236
e 157 38
e 157 71
e 157 74
e 157 113
e 157 116
e 157 182
e 157 200
e 158 31
e 158 35
e 158 68
e 158 93
e 158 191
e 158 228
e 158 237
e 159 19
e 159 22
e 159 26
e 159 57
e 159 63
e 159 110
e 159 160
e 160 11
e 160 55
e 160 58
e 160 89
e 160 99
e 160 131
e 160 173
e 161 9
e 161 25
e 161 45
e 161 145
e 161 187
e 161 217
e 161 240
e 162 17
e 162 129
e 162 185
e 162 191
e 162 198
e 162 231
e 162 232
e 163 24
e 163 58
e 163 60
e 163 60
e 163 150
e 163 192
e 163 217
e 164 15
e 164 88
e 164 120
e 164 197
e 164 198
e 164 201
e 164 215
e 165 23
e 165 54
e 165 64
e 165 111
e 165 137
e 165 230
e 165 235
e 166 15
e 166 31
e 166 83
e 166 83
e 166 156
e 166 164
e 166 223
e 167 24
e 167 45
e 167 74
e 167 173
e 167 222
e 167 229
e 167 239
e 168 43
e 168 62
e 168 70
e 168 89
e 168 159
e 168 194
e 168 239
e 169 9
e 169 14
e 169 40
e 169 49
e 169 78
e 169 122
e 169 240
e 170 17
e 170 22
e 170 41
e 170 75
e 170 93
e 170 100
e 170 165
e 171 53
e 171 89
e 171 102
e 171 103
e 171 137
e 171 186
e 171 211
e 172 21
e 172 117
e 172 119
e 172 134
e 172 154
e 172 234
e 172 238
e 173 38
e 173 52
e 173 115
e 173 140
e 173 177
e 173 214
e 173 232
e 174 34
e 174 99
e 174 119
e 174 145
e 174 170
e 174 188
e 174 210
e 175 13
e 175 43
e 175 52
e 175 137
e 175 142
e 175 159
e 175 191
e 176 123
e 176 135
e 176 151
e 176 180
e 176 205
e 176 231
e 176 239
e 177 13
e 177 33
e 177 73
e 177 75
e 177 129
e 177 203
e 177 210
e 178 16
e 178 32
e 178 113
e 178 116
e 178 164
e 178 205
e 178 216
e 179 25
e 179 83
e 179 121
e 179 155
e 179 205
e 179 211
e 179 214
e 180 55
e 180 72
e 180 107
e 180 134
e 180 139
e 180 196
e 180 238
e 181 1
e 181 31
e 181 46
e 181 71
e 181 78
e 181 141
e 181 196
e 182 4
e 182 31
e 182 35
e 182 47
e 182 48
e 182 103
e 182 234
e 183 35
e 183 48
e 183 67
e 183 83
e 183 106
e 183 120
e 183 193
e 184 34
e 184 70
e 184 73
e 184 97
e 184 109
e 184 143
e 184 195
e 185 19
e 185 24
e 185 26
e 185 32
e 185 130
e 185 226
e 185 229
e 186 3
e 186 74
e 186 109
e 186 124
e 186 174
e 186 175
e 186 237
e 187 27
e 187 33
e 187 66
e 187 104
e 187 108
e 187 135
e 187 186
e 188 27
e 188 73
e 188 93
e 188 97
e 188 187
e 188 192
e 188 202
e 189 26
e 189 68
e 189 90
e 189 98
e 189 136
e 189 163
e 189 179
e 190 41
e 190 56
e 190 67
e 190 90
e 190 130
e 190 227
e 190 230
e 191 25
e 191 33
e 191 37
e 191 63
e 191 77
e 191 91
e 191 136
e 192 27
e 192 81
e 192 116
e 192 121
e 192 142
e 192 171
e 192 218
e 193 10
e 193 11
e 193 50
e 193 53
e 193 177
e 193 200
e 193 200
e 194 6
e 194 122
e 194 148
e 194 149
e 194 154
e 194 155
e 194 215
e 195 10
e 195 103
e 195 113
e 195 116
e 195 145
e 195 184
e 195 210
e 196 46
e 196 54
e 196 104
e 196 132
e 196 167
e 196 190
e 196 235
e 197 30
e 197 39
e 197 49
e 197 101
e 197 174
e 197 201
e 197 232
e 198 12
e 198 18
e 198 22
e 198 41
e 198 63
e 198 137
e 198 163
e 199 71
e 199 74
e 199 80
e 199 128
e 199 160
e 199 166
e 199 189
e 200 42
e 200 68
e 200 74
e 200 132
e 200 146
e 200 149
e 200 155
e 201 34
e 201 36
e 201 71
e 201 82
e 201 130
e 201 143
e 201 145
e 202 5
e 202 24
e 202 54
e 202 64
e 202 94
e 202 143
e 202 165
e 203 9
e 203 32
e 203 45
e 203 145
e 203 162
e 203 197
e 203 227
e 204 38
e 204 62
e 204 87
e 204 119
e 204 139
e 204 194
e 204 226
e 205 10
e 205 13
e 205 85
e 205 99
e 205 105
e 205 146
e 205 171
e 206 51
e 206 161
e 206 176
e 206 185
e 206 215
e 206 232
e 206 233
e 207 13
e 207 34
e 207 59
e 207 88
e 207 109
e 207 144
e 207 209
e 208 20
e 208 39
e 208 57
e 208 71
e 208 125
e 208 140
e 208 164
e 209 3
e 209 57
e 209 63
e 209 176
e 209 190
e 209 206
e 209 232
e 210 57
e 210 70
e 210 97
e 210 189
e 210 204
e 210 227
e 210 233
e 211 31
e 211 37
e 211 102
e 211 109
e 211 125
e 211 180
e 211 213
e 212 4
e 212 21
e 212 53
e 212 84
e 212 96
e 212 118
e 212 136
e 213 2
e 213 24
e 213 37
e 213 60
e 213 148
e 213 169
e 213 174
e 214 15
e 214 22
e 214 68
e 214 105
e 214 145
e 214 166
e 214 198
e 215 14
e 215 24
e 215 42
e 215 71
e 215 195
e 215 207
e 215 227
e 216 19
e 216 71
e 216 84
e 216 110
e 216 169
e 216 205
e 216 208
e 217 5
e 217 9
e 217 67
e 217 150
e 217 194
e 217 215
e 217 237
e 218 19
e 218 85
e 218 95
e 218 117
e 218 140
e 218 146
e 218 157
e 219 25
e 219 47
e 219 74
e 219 160
e 219 169
e 219 180
e 219 235
e 220 8
e 220 23
e 220 29
e 220 42
e 220 78
e 220 137
e 220 183
e 221 9
e 221 17
e 221 39
e 221 80
e 221 118
e 221 209
e 221 217
e 222 3
e 222 21
e 222 47
e 222 105
e 222 126
e 222 142
e 222 235
e 223 4
e 223 13
e 223 26
e 223 38
e 223 114
e 223 159
e 223 168
e 224 81
e 224 110
e 224 140
e 224 150
e 224 162
e 224 171
e 224 180
e 225 25
e 225 119
e 225 136
e 225 141
e 225 155
e 225 177
e 225 187
e 226 6
e 226 143
e 226 174
e 226 185
e 226 206
e 226 229
e 226 233
e 227 42
e 227 99
e 227 116
e 227 119
e 227 145
e 227 168
e 227 180
e 228 1
e 228 16
e 228 38
e 228 75
e 228 76
e 228 201
e 228 229
e 229 36
e 229 43
e 229 115
e 229 152
e 229 154
e 229 209
e 229 215
e 230 42
e 230 124
e 230 141
e 230 142
e 230 213
e 230 229
e 230 237
e 231 47
e 231 60
e 231 101
e 231 115
e 231 116
e 231 143
e 231 148
e 232 49
e 232 89
e 232 105
e 232 118
e 232 134
e 232 148
e 232 220
e 233 80
e 233 80
e 233 118
e 233 130
e 233 171
e 233 202
e 233 217
e 234 5
e 234 17
e 234 37
e 234 123
e 234 139
e 234 149
e 234 232
e 235 10
e 235 121
e 235 127
e 235 127
e 235 159
e 235 200
e 235 229
e 236 25
e 236 56
e 236 75
e 236 121
e 236 181
e 236 201
e 236 214
e 237 4
e 237 30
e 237 51
e 237 65
e 237 110
e 237 118
e 237 217
e 238 28
e 238 60
e 238 66
e 238 109
e 238 125
e 238 163
e 238 174
e 239 53
e 239 59
e 239 64
e 239 154
e 239 165
e 239 181
e 239 224
e 240 51
e 240 61
e 240 83
e 240 99
e 240 171
e 240 199
e 240 207
